43 65 92 93 36 22 59 98 
90 25 71 70 94 88 12 83 72 
57 86 40 38 39 51 34 
3 55 54 44 73 6 48 69 
42 63 35 11 45 4 91 75 95 
81 1 62 16 14 5 89 85 37 
20 87 53 56 58 77 79 80 96 
78 76 21 30 61 64 68 31 50 47 
13 17 27 7 46 60 23 66 49 
67 24 19 15 2 9 100 99 82 26 
33 41 74 84 97 52 
32 18 8 10 28 
29 

